0 4121
2 4071
3 4003
4 3995
5 3954
6 3871
9 3858
10 3800
13 3755
16 3712
19 3690
30 3683
31 3657
33 3630
36 3622
54 3616
62 3614
65 3609
67 3598
68 3594
75 3569
79 3556
88 3522
92 3516
99 3505
101 3500
108 3480
109 3467
137 3466
148 3454
149 3424
163 3388
166 3375
242 3367
254 3364
255 3351
294 3334
326 3332
334 3331
339 3315
426 3314
466 3302
468 3295
490 3282
549 3276
568 3260
575 3250
717 3246
744 3232
1086 3230
1123 3228
1124 3220
1319 3215
1325 3211
1437 3206
1449 3203
1502 3195
1508 3184
1565 3183
1640 3178
1652 3176
1706 3167
1714 3166
2130 3163
4384 3148
4437 3143
4509 3140
4534 3137
4812 3135
272086 3132
273370 3130
273569 3126
273671 3123
273696 3121
274065 3118
274715 3115
275288 3113
276464 3112
276759 3111
277439 3109
277630 3107
281702 3106
282555 3104
313488 3100
362237 3097
362778 3096
363254 3094
478428 3093
478819 3092
